(set-info :smt-lib-version 2.6)
(set-logic UFLRA)
; Problem:
; 
;     lim(f_1 x) = l_1
;     ...
;     lim(f_n x) = l_n
;     =================
;     lim(k_1 f_{i_1}(x) + ... + k_m f_{i_m}(x)) = k1 l_{i_1} ... k_m  l_{i_m}
; 
; with n = 4
;      m = 16
;      k_i in Q
;      i_j in {1..n}

(declare-fun f0 (Real) Real)
(declare-fun f1 (Real) Real)
(declare-fun f2 (Real) Real)
(declare-fun f3 (Real) Real)
(declare-const l0 Real)
(declare-const l1 Real)
(declare-const l2 Real)
(declare-const l3 Real)
(declare-const a Real)
; Axiom 0
(assert ; lim[x -> a](f0 x) = l0
        ;
        ; forall epsilon > 0
        (forall ((epsilon Real)) (=> (< 0.0 epsilon)
          ;
          ; exists delta > 0
          (exists ( (delta Real) ) (and (< 0.0 delta)
            (forall ((x Real)) (=> ;
                                          ; a != x
                                     (and (not (= x a))
                                          ; | x - a | < delta
                                          (< (ite (>= (- x a) 0.0) (- x a) (- (- x a))) delta))
                                     ;
                                     ; | (f0 x) - l0 | < epsilon
                                     (< (ite (>= (- (f0 x) l0) 0.0) (- (f0 x) l0) (- (- (f0 x) l0))) epsilon)
            ))
          ))
        )))

; Axiom 1
(assert ; lim[x -> a](f1 x) = l1
        ;
        ; forall epsilon > 0
        (forall ((epsilon Real)) (=> (< 0.0 epsilon)
          ;
          ; exists delta > 0
          (exists ( (delta Real) ) (and (< 0.0 delta)
            (forall ((x Real)) (=> ;
                                          ; a != x
                                     (and (not (= x a))
                                          ; | x - a | < delta
                                          (< (ite (>= (- x a) 0.0) (- x a) (- (- x a))) delta))
                                     ;
                                     ; | (f1 x) - l1 | < epsilon
                                     (< (ite (>= (- (f1 x) l1) 0.0) (- (f1 x) l1) (- (- (f1 x) l1))) epsilon)
            ))
          ))
        )))

; Axiom 2
(assert ; lim[x -> a](f2 x) = l2
        ;
        ; forall epsilon > 0
        (forall ((epsilon Real)) (=> (< 0.0 epsilon)
          ;
          ; exists delta > 0
          (exists ( (delta Real) ) (and (< 0.0 delta)
            (forall ((x Real)) (=> ;
                                          ; a != x
                                     (and (not (= x a))
                                          ; | x - a | < delta
                                          (< (ite (>= (- x a) 0.0) (- x a) (- (- x a))) delta))
                                     ;
                                     ; | (f2 x) - l2 | < epsilon
                                     (< (ite (>= (- (f2 x) l2) 0.0) (- (f2 x) l2) (- (- (f2 x) l2))) epsilon)
            ))
          ))
        )))

; Axiom 3
(assert ; lim[x -> a](f3 x) = l3
        ;
        ; forall epsilon > 0
        (forall ((epsilon Real)) (=> (< 0.0 epsilon)
          ;
          ; exists delta > 0
          (exists ( (delta Real) ) (and (< 0.0 delta)
            (forall ((x Real)) (=> ;
                                          ; a != x
                                     (and (not (= x a))
                                          ; | x - a | < delta
                                          (< (ite (>= (- x a) 0.0) (- x a) (- (- x a))) delta))
                                     ;
                                     ; | (f3 x) - l3 | < epsilon
                                     (< (ite (>= (- (f3 x) l3) 0.0) (- (f3 x) l3) (- (- (f3 x) l3))) epsilon)
            ))
          ))
        )))


; Conclusion
(assert (not ; lim[x -> a](+ (* (/ 60.0 95.0) (f2 x)) (* (- (/ 66.0 61.0)) (f1 x)) (* (- (/ 47.0 58.0)) (f1 x)) (* (- (/ 19.0 2.0)) (f1 x)) (* (/ 85.0 20.0) (f0 x)) (* (/ 70.0 75.0) (f3 x)) (* (/ 100.0 35.0) (f0 x)) (* (/ 16.0 13.0) (f0 x)) (* (- (/ 90.0 34.0)) (f3 x)) (* (- (/ 22.0 100.0)) (f3 x)) (* (/ 9.0 83.0) (f1 x)) (* (/ 53.0 51.0) (f0 x)) (* (- (/ 52.0 68.0)) (f2 x)) (* (- (/ 83.0 10.0)) (f3 x)) (* (/ 23.0 60.0) (f1 x)) (* (- (/ 75.0 97.0)) (f3 x))) = (+ (* (/ 60.0 95.0) l2) (* (- (/ 66.0 61.0)) l1) (* (- (/ 47.0 58.0)) l1) (* (- (/ 19.0 2.0)) l1) (* (/ 85.0 20.0) l0) (* (/ 70.0 75.0) l3) (* (/ 100.0 35.0) l0) (* (/ 16.0 13.0) l0) (* (- (/ 90.0 34.0)) l3) (* (- (/ 22.0 100.0)) l3) (* (/ 9.0 83.0) l1) (* (/ 53.0 51.0) l0) (* (- (/ 52.0 68.0)) l2) (* (- (/ 83.0 10.0)) l3) (* (/ 23.0 60.0) l1) (* (- (/ 75.0 97.0)) l3))
             ;
             ; forall epsilon > 0
             (forall ((epsilon Real)) (=> (< 0.0 epsilon)
               ;
               ; exists delta > 0
               (exists ( (delta Real) ) (and (< 0.0 delta)
                 (forall ((x Real)) (=> ;
                                               ; a != x
                                          (and (not (= x a))
                                               ; | x - a | < delta
                                               (< (ite (>= (- x a) 0.0) (- x a) (- (- x a))) delta))
                                          ;
                                          ; | (+ (* (/ 60.0 95.0) (f2 x)) (* (- (/ 66.0 61.0)) (f1 x)) (* (- (/ 47.0 58.0)) (f1 x)) (* (- (/ 19.0 2.0)) (f1 x)) (* (/ 85.0 20.0) (f0 x)) (* (/ 70.0 75.0) (f3 x)) (* (/ 100.0 35.0) (f0 x)) (* (/ 16.0 13.0) (f0 x)) (* (- (/ 90.0 34.0)) (f3 x)) (* (- (/ 22.0 100.0)) (f3 x)) (* (/ 9.0 83.0) (f1 x)) (* (/ 53.0 51.0) (f0 x)) (* (- (/ 52.0 68.0)) (f2 x)) (* (- (/ 83.0 10.0)) (f3 x)) (* (/ 23.0 60.0) (f1 x)) (* (- (/ 75.0 97.0)) (f3 x))) - (+ (* (/ 60.0 95.0) l2) (* (- (/ 66.0 61.0)) l1) (* (- (/ 47.0 58.0)) l1) (* (- (/ 19.0 2.0)) l1) (* (/ 85.0 20.0) l0) (* (/ 70.0 75.0) l3) (* (/ 100.0 35.0) l0) (* (/ 16.0 13.0) l0) (* (- (/ 90.0 34.0)) l3) (* (- (/ 22.0 100.0)) l3) (* (/ 9.0 83.0) l1) (* (/ 53.0 51.0) l0) (* (- (/ 52.0 68.0)) l2) (* (- (/ 83.0 10.0)) l3) (* (/ 23.0 60.0) l1) (* (- (/ 75.0 97.0)) l3)) | < epsilon
                                          (< (ite (>= (- (+ (* (/ 60.0 95.0) (f2 x)) (* (- (/ 66.0 61.0)) (f1 x)) (* (- (/ 47.0 58.0)) (f1 x)) (* (- (/ 19.0 2.0)) (f1 x)) (* (/ 85.0 20.0) (f0 x)) (* (/ 70.0 75.0) (f3 x)) (* (/ 100.0 35.0) (f0 x)) (* (/ 16.0 13.0) (f0 x)) (* (- (/ 90.0 34.0)) (f3 x)) (* (- (/ 22.0 100.0)) (f3 x)) (* (/ 9.0 83.0) (f1 x)) (* (/ 53.0 51.0) (f0 x)) (* (- (/ 52.0 68.0)) (f2 x)) (* (- (/ 83.0 10.0)) (f3 x)) (* (/ 23.0 60.0) (f1 x)) (* (- (/ 75.0 97.0)) (f3 x))) (+ (* (/ 60.0 95.0) l2) (* (- (/ 66.0 61.0)) l1) (* (- (/ 47.0 58.0)) l1) (* (- (/ 19.0 2.0)) l1) (* (/ 85.0 20.0) l0) (* (/ 70.0 75.0) l3) (* (/ 100.0 35.0) l0) (* (/ 16.0 13.0) l0) (* (- (/ 90.0 34.0)) l3) (* (- (/ 22.0 100.0)) l3) (* (/ 9.0 83.0) l1) (* (/ 53.0 51.0) l0) (* (- (/ 52.0 68.0)) l2) (* (- (/ 83.0 10.0)) l3) (* (/ 23.0 60.0) l1) (* (- (/ 75.0 97.0)) l3))) 0.0) (- (+ (* (/ 60.0 95.0) (f2 x)) (* (- (/ 66.0 61.0)) (f1 x)) (* (- (/ 47.0 58.0)) (f1 x)) (* (- (/ 19.0 2.0)) (f1 x)) (* (/ 85.0 20.0) (f0 x)) (* (/ 70.0 75.0) (f3 x)) (* (/ 100.0 35.0) (f0 x)) (* (/ 16.0 13.0) (f0 x)) (* (- (/ 90.0 34.0)) (f3 x)) (* (- (/ 22.0 100.0)) (f3 x)) (* (/ 9.0 83.0) (f1 x)) (* (/ 53.0 51.0) (f0 x)) (* (- (/ 52.0 68.0)) (f2 x)) (* (- (/ 83.0 10.0)) (f3 x)) (* (/ 23.0 60.0) (f1 x)) (* (- (/ 75.0 97.0)) (f3 x))) (+ (* (/ 60.0 95.0) l2) (* (- (/ 66.0 61.0)) l1) (* (- (/ 47.0 58.0)) l1) (* (- (/ 19.0 2.0)) l1) (* (/ 85.0 20.0) l0) (* (/ 70.0 75.0) l3) (* (/ 100.0 35.0) l0) (* (/ 16.0 13.0) l0) (* (- (/ 90.0 34.0)) l3) (* (- (/ 22.0 100.0)) l3) (* (/ 9.0 83.0) l1) (* (/ 53.0 51.0) l0) (* (- (/ 52.0 68.0)) l2) (* (- (/ 83.0 10.0)) l3) (* (/ 23.0 60.0) l1) (* (- (/ 75.0 97.0)) l3))) (- (- (+ (* (/ 60.0 95.0) (f2 x)) (* (- (/ 66.0 61.0)) (f1 x)) (* (- (/ 47.0 58.0)) (f1 x)) (* (- (/ 19.0 2.0)) (f1 x)) (* (/ 85.0 20.0) (f0 x)) (* (/ 70.0 75.0) (f3 x)) (* (/ 100.0 35.0) (f0 x)) (* (/ 16.0 13.0) (f0 x)) (* (- (/ 90.0 34.0)) (f3 x)) (* (- (/ 22.0 100.0)) (f3 x)) (* (/ 9.0 83.0) (f1 x)) (* (/ 53.0 51.0) (f0 x)) (* (- (/ 52.0 68.0)) (f2 x)) (* (- (/ 83.0 10.0)) (f3 x)) (* (/ 23.0 60.0) (f1 x)) (* (- (/ 75.0 97.0)) (f3 x))) (+ (* (/ 60.0 95.0) l2) (* (- (/ 66.0 61.0)) l1) (* (- (/ 47.0 58.0)) l1) (* (- (/ 19.0 2.0)) l1) (* (/ 85.0 20.0) l0) (* (/ 70.0 75.0) l3) (* (/ 100.0 35.0) l0) (* (/ 16.0 13.0) l0) (* (- (/ 90.0 34.0)) l3) (* (- (/ 22.0 100.0)) l3) (* (/ 9.0 83.0) l1) (* (/ 53.0 51.0) l0) (* (- (/ 52.0 68.0)) l2) (* (- (/ 83.0 10.0)) l3) (* (/ 23.0 60.0) l1) (* (- (/ 75.0 97.0)) l3))))) epsilon)
                 ))
               ))
             ))))

(check-sat)

